========================================================== 
File name: C:\DEGR\assets\definitions\MSRCPSP_Gen\1000_40_1024_10_C.def
Creation date: Sat May 06 09:23:27 CEST 2023
Website: http://imopse.ii.pwr.edu.pl/ 
Reference: 
Myszkowski P. B., Skowronski M. E., Olech L., Oslizlo K., 
Hybrid Ant Colony Optimization in solving Multi-Skill Resource-Constrained Project Scheduling Problem, 
Soft Computing, DOI: DOI 10.1007/s00500-014-1455-x 
========================================================== 
General characteristics: 
Tasks: 1000
Resources: 40
Precedence relations: 1023
Number of skill types: 10
========================================================== 
ResourceID 	 Salary 	 Skills 
1	 	 	17.8	 	 Q9: 0 	  Q0: 0 	  Q7: 2 	  Q3: 1 	 
2	 	 	38.2	 	 Q0: 0 	  Q9: 2 	  Q4: 3 	  Q8: 3 	 
3	 	 	19.8	 	 Q5: 1 	  Q9: 0 	  Q2: 0 	  Q7: 0 	 
4	 	 	90.5	 	 Q0: 3 	  Q5: 1 	  Q2: 0 	  Q6: 2 	  Q8: 0 	  Q4: 2 	 
5	 	 	74.9	 	 Q5: 2 	  Q7: 0 	 
6	 	 	48.0	 	 Q6: 1 	  Q1: 3 	  Q5: 1 	  Q0: 2 	 
7	 	 	43.6	 	 Q5: 0 	  Q0: 0 	  Q4: 3 	 
8	 	 	31.3	 	 Q4: 2 	  Q7: 1 	  Q6: 2 	  Q0: 2 	  Q1: 3 	 
9	 	 	19.3	 	 Q3: 3 	  Q0: 3 	  Q6: 1 	  Q1: 3 	  Q5: 0 	  Q9: 0 	 
10	 	 	29.3	 	 Q6: 0 	  Q0: 1 	  Q8: 1 	  Q4: 2 	  Q5: 2 	 
11	 	 	64.4	 	 Q9: 1 	  Q1: 2 	  Q8: 2 	 
12	 	 	87.5	 	 Q8: 2 	  Q5: 3 	  Q0: 3 	  Q7: 1 	  Q1: 3 	  Q6: 2 	  Q9: 0 	 
13	 	 	54.6	 	 Q1: 3 	  Q8: 2 	  Q5: 3 	  Q9: 1 	  Q0: 3 	  Q6: 3 	  Q4: 0 	  Q7: 0 	  Q2: 0 	 
14	 	 	37.7	 	 Q8: 3 	  Q0: 1 	  Q4: 2 	  Q6: 0 	  Q9: 1 	  Q1: 1 	 
15	 	 	84.1	 	 Q3: 1 	  Q5: 2 	  Q6: 0 	  Q4: 3 	  Q7: 0 	  Q8: 1 	  Q0: 2 	  Q1: 2 	 
16	 	 	47.2	 	 Q5: 0 	  Q0: 0 	  Q9: 2 	  Q6: 3 	  Q1: 3 	  Q7: 3 	  Q8: 1 	  Q2: 3 	  Q4: 0 	 
17	 	 	86.7	 	 Q4: 1 	  Q6: 3 	  Q3: 1 	 
18	 	 	77.6	 	 Q2: 2 	  Q7: 2 	  Q3: 3 	 
19	 	 	52.4	 	 Q6: 3 	 
20	 	 	53.4	 	 Q4: 1 	  Q5: 0 	  Q1: 0 	  Q7: 0 	  Q2: 2 	  Q9: 0 	 
21	 	 	37.4	 	 Q1: 2 	  Q9: 2 	  Q4: 3 	  Q3: 3 	  Q6: 0 	  Q0: 1 	  Q8: 1 	 
22	 	 	67.0	 	 Q5: 2 	  Q0: 0 	  Q9: 0 	  Q6: 0 	  Q1: 1 	 
23	 	 	14.8	 	 Q8: 0 	  Q3: 3 	  Q1: 0 	  Q0: 2 	  Q2: 3 	 
24	 	 	38.7	 	 Q6: 0 	  Q4: 3 	  Q7: 1 	 
25	 	 	72.3	 	 Q9: 0 	  Q4: 2 	  Q1: 0 	  Q2: 0 	 
26	 	 	54.8	 	 Q3: 0 	  Q7: 2 	  Q6: 0 	  Q4: 1 	  Q5: 1 	  Q8: 0 	  Q9: 3 	 
27	 	 	35.6	 	 Q3: 1 	  Q2: 2 	  Q0: 1 	  Q7: 0 	  Q6: 3 	  Q8: 2 	  Q9: 2 	  Q5: 3 	  Q1: 3 	 
28	 	 	66.0	 	 Q1: 1 	  Q8: 3 	  Q3: 3 	  Q2: 2 	  Q5: 0 	  Q9: 1 	  Q7: 0 	  Q6: 2 	  Q4: 2 	 
29	 	 	21.8	 	 Q6: 3 	  Q5: 2 	  Q0: 2 	  Q2: 2 	  Q7: 3 	  Q1: 1 	  Q8: 0 	 
30	 	 	27.4	 	 Q4: 1 	  Q3: 2 	  Q6: 3 	  Q9: 0 	  Q0: 2 	  Q1: 2 	 
31	 	 	72.6	 	 Q3: 2 	  Q9: 2 	 
32	 	 	24.6	 	 Q4: 2 	  Q3: 0 	 
33	 	 	26.7	 	 Q7: 1 	  Q9: 0 	  Q6: 2 	  Q1: 0 	  Q0: 2 	 
34	 	 	69.3	 	 Q4: 3 	  Q6: 2 	  Q1: 1 	  Q7: 3 	  Q9: 0 	  Q0: 2 	  Q2: 1 	 
35	 	 	27.7	 	 Q2: 2 	 
36	 	 	31.8	 	 Q3: 2 	 
37	 	 	60.2	 	 Q8: 3 	  Q7: 3 	  Q1: 2 	  Q3: 1 	  Q2: 3 	 
38	 	 	12.4	 	 Q0: 3 	  Q2: 2 	  Q4: 2 	  Q1: 2 	  Q6: 3 	  Q5: 0 	 
39	 	 	51.8	 	 Q5: 2 	  Q4: 2 	  Q8: 1 	  Q6: 2 	  Q1: 3 	  Q0: 3 	 
40	 	 	83.0	 	 Q2: 3 	  Q3: 3 	  Q1: 2 	  Q8: 0 	  Q9: 3 	 
========================================================== 
TaskID 	 Duration 	 Skill 	 Predecessor IDs 
1	20	Q4:	3
2	33	Q6:	0
3	26	Q4:	2
4	11	Q0:	3
5	39	Q1:	0
6	25	Q8:	3
7	26	Q2:	3
8	9	Q4:	2
9	16	Q8:	0
10	12	Q9:	3
11	33	Q9:	1
12	11	Q8:	3
13	23	Q9:	2
14	17	Q7:	3
15	27	Q6:	0
16	17	Q1:	3
17	30	Q3:	3
18	40	Q0:	3
19	32	Q1:	2
20	36	Q1:	3
21	15	Q9:	2
22	20	Q2:	3
23	8	Q6:	1
24	31	Q8:	0
25	33	Q2:	2
26	29	Q8:	2
27	35	Q5:	0
28	12	Q1:	3
29	39	Q8:	1
30	33	Q7:	1
31	27	Q1:	2
32	19	Q2:	2
33	34	Q5:	1
34	38	Q7:	1
35	38	Q0:	3
36	18	Q1:	3
37	13	Q5:	0
38	22	Q7:	0
39	38	Q2:	2
40	27	Q1:	1
41	25	Q4:	3
42	16	Q1:	0
43	20	Q0:	2
44	38	Q4:	2	34
45	17	Q1:	2
46	17	Q0:	0
47	27	Q9:	0
48	22	Q8:	1	32
49	37	Q8:	3
50	39	Q5:	2
51	38	Q0:	3
52	9	Q3:	1
53	32	Q1:	2
54	31	Q5:	2	9
55	36	Q2:	3
56	39	Q4:	1
57	11	Q7:	2
58	31	Q5:	1
59	23	Q5:	1
60	14	Q9:	1
61	26	Q3:	0
62	32	Q0:	1
63	21	Q8:	3
64	30	Q3:	0
65	25	Q2:	3
66	19	Q0:	1
67	26	Q3:	1
68	38	Q5:	1
69	28	Q2:	3
70	26	Q3:	2
71	26	Q5:	0
72	34	Q5:	2
73	10	Q2:	3	5
74	21	Q8:	2
75	39	Q3:	1
76	20	Q5:	3
77	37	Q4:	3
78	24	Q8:	2
79	37	Q8:	0	26
80	19	Q5:	2
81	12	Q5:	3
82	40	Q7:	2
83	32	Q2:	2	10
84	27	Q9:	0
85	39	Q7:	3
86	16	Q3:	2
87	22	Q4:	1
88	25	Q1:	2
89	10	Q6:	2	18
90	12	Q5:	2
91	24	Q0:	2	57	60
92	33	Q4:	0
93	19	Q0:	2
94	9	Q2:	3
95	24	Q5:	0	43
96	40	Q8:	3
97	30	Q1:	1
98	22	Q1:	2
99	13	Q9:	0
100	21	Q0:	1
101	31	Q0:	1	62	96
102	16	Q3:	2	29
103	24	Q7:	2
104	37	Q2:	0
105	29	Q3:	3
106	34	Q6:	1
107	24	Q0:	0
108	40	Q4:	2
109	34	Q1:	1
110	12	Q5:	2
111	24	Q9:	3
112	25	Q1:	2
113	20	Q7:	1
114	35	Q1:	1
115	32	Q2:	1
116	33	Q8:	2
117	40	Q3:	1
118	38	Q8:	0
119	35	Q7:	3	47
120	22	Q4:	1
121	31	Q3:	3
122	17	Q7:	3
123	40	Q4:	2
124	14	Q6:	1
125	20	Q0:	2	117	122
126	22	Q9:	2	53
127	17	Q0:	2
128	12	Q6:	2
129	15	Q3:	2
130	29	Q8:	3
131	27	Q3:	3
132	38	Q6:	1
133	12	Q1:	0
134	36	Q1:	3
135	24	Q4:	0	13	76
136	28	Q8:	1
137	39	Q7:	1
138	32	Q7:	0
139	27	Q9:	2	72
140	38	Q6:	0
141	19	Q9:	0
142	11	Q1:	2	11
143	18	Q5:	1	120
144	21	Q1:	0
145	22	Q8:	0	8	46
146	33	Q1:	2
147	31	Q8:	2
148	40	Q4:	0
149	32	Q4:	0
150	31	Q5:	3
151	12	Q0:	2
152	38	Q1:	0	48
153	27	Q0:	2	76
154	24	Q8:	1
155	40	Q3:	3
156	34	Q4:	2
157	34	Q7:	0
158	9	Q6:	2
159	34	Q4:	0
160	23	Q5:	2
161	15	Q9:	3	15
162	30	Q1:	0	106
163	18	Q8:	2
164	22	Q0:	1
165	21	Q7:	2
166	29	Q9:	1
167	38	Q2:	1	45
168	30	Q4:	0	60
169	17	Q1:	1
170	21	Q3:	0
171	30	Q7:	3	28
172	17	Q5:	0
173	33	Q6:	2
174	14	Q7:	3
175	17	Q2:	1	107	74
176	36	Q1:	3
177	40	Q2:	1
178	36	Q1:	3
179	37	Q9:	1
180	40	Q8:	1
181	24	Q3:	3	140
182	21	Q0:	1
183	22	Q9:	0
184	17	Q5:	1
185	22	Q6:	0
186	16	Q4:	1
187	26	Q0:	2
188	30	Q4:	0	49	57
189	9	Q7:	2
190	20	Q5:	0	92	43
191	34	Q1:	2
192	36	Q5:	1	6
193	14	Q1:	1
194	23	Q8:	3
195	37	Q0:	1
196	38	Q2:	3
197	24	Q4:	2
198	38	Q6:	3	17	20
199	22	Q4:	0
200	33	Q9:	1
201	23	Q9:	3
202	19	Q9:	2
203	13	Q4:	0
204	18	Q1:	3
205	21	Q4:	1
206	16	Q8:	0
207	15	Q9:	0	202
208	16	Q1:	2
209	20	Q8:	0
210	11	Q6:	3
211	40	Q9:	3
212	25	Q2:	1	18
213	29	Q6:	3	50
214	17	Q1:	2
215	33	Q2:	0
216	28	Q6:	2
217	23	Q9:	3
218	25	Q1:	3	191
219	16	Q4:	3	106
220	32	Q4:	3	108
221	38	Q2:	1
222	34	Q3:	3
223	33	Q7:	0	22	81	46
224	29	Q2:	3
225	36	Q3:	1
226	30	Q9:	0	122
227	11	Q7:	2	60
228	14	Q1:	3
229	35	Q7:	2	201
230	30	Q9:	0
231	24	Q8:	1
232	28	Q0:	0
233	11	Q5:	0
234	35	Q0:	1	36
235	35	Q1:	2
236	13	Q8:	3
237	14	Q3:	2
238	34	Q4:	0
239	12	Q9:	3	173
240	22	Q3:	0	219
241	10	Q0:	2
242	39	Q7:	1
243	11	Q2:	1
244	33	Q3:	2	70
245	36	Q5:	2
246	23	Q7:	2	229	230
247	30	Q8:	2	131
248	17	Q9:	3
249	27	Q1:	1
250	20	Q1:	0
251	27	Q5:	1
252	34	Q7:	0
253	30	Q1:	3	116
254	13	Q9:	0
255	19	Q2:	1
256	38	Q8:	0
257	37	Q8:	1
258	24	Q1:	0	208
259	38	Q1:	1	39
260	21	Q6:	2
261	19	Q4:	3	110
262	14	Q9:	2
263	25	Q6:	1	245
264	16	Q3:	1	51
265	9	Q9:	0	167
266	31	Q0:	0	80
267	31	Q5:	1	61
268	32	Q4:	0	151
269	22	Q3:	3
270	33	Q6:	1	49
271	28	Q3:	1	230
272	20	Q4:	2	196
273	9	Q5:	1
274	24	Q8:	1
275	39	Q7:	1
276	25	Q5:	1
277	18	Q7:	3
278	36	Q2:	2	223	143
279	20	Q9:	1
280	16	Q1:	2
281	39	Q8:	1
282	36	Q1:	0
283	10	Q1:	1
284	23	Q6:	0
285	25	Q6:	0	152
286	29	Q3:	1
287	37	Q8:	0
288	13	Q3:	2
289	16	Q0:	2	96
290	21	Q1:	3
291	13	Q6:	2
292	24	Q5:	2
293	40	Q3:	3
294	10	Q6:	3
295	37	Q3:	0
296	35	Q6:	3	113
297	10	Q9:	2	142
298	19	Q3:	0
299	39	Q1:	3
300	37	Q8:	3
301	35	Q3:	3	138	160
302	24	Q0:	1
303	36	Q6:	2
304	31	Q9:	2	168	293
305	31	Q2:	3	207
306	10	Q3:	0	174
307	31	Q2:	3
308	19	Q6:	2
309	14	Q5:	2
310	18	Q2:	3
311	10	Q5:	3
312	39	Q3:	3
313	9	Q4:	2	173	246
314	14	Q8:	1	193
315	11	Q5:	1
316	20	Q0:	2
317	36	Q8:	3
318	13	Q2:	2	57
319	24	Q1:	2	152	88	192
320	35	Q5:	2
321	19	Q0:	3	320
322	24	Q0:	2	263
323	35	Q6:	3	278
324	15	Q7:	0	56
325	24	Q5:	1
326	20	Q4:	2
327	24	Q9:	0	77	170
328	18	Q0:	1
329	36	Q0:	0	51
330	35	Q6:	0
331	13	Q6:	2	205
332	32	Q5:	3	43	260
333	28	Q7:	2
334	11	Q7:	2	85	82
335	21	Q2:	2	132
336	29	Q7:	3
337	33	Q7:	2	126
338	32	Q1:	3	250
339	23	Q5:	3	206
340	37	Q8:	2
341	28	Q7:	1	208
342	33	Q7:	0	103
343	24	Q8:	3	34
344	15	Q7:	2	134	259	286
345	18	Q6:	2	133
346	9	Q1:	3
347	25	Q5:	0	129
348	33	Q6:	1	191	34
349	29	Q4:	1
350	21	Q9:	3	173
351	9	Q6:	0
352	33	Q2:	0	280
353	37	Q5:	1
354	36	Q0:	2	7
355	20	Q6:	1
356	36	Q2:	3	16
357	14	Q7:	0	58
358	15	Q5:	0
359	21	Q4:	0	154
360	27	Q5:	1
361	17	Q3:	1	11
362	27	Q0:	2
363	31	Q5:	0
364	21	Q5:	1
365	13	Q5:	3
366	38	Q6:	3
367	25	Q9:	0	274
368	17	Q9:	0
369	32	Q6:	2
370	10	Q8:	2	204
371	20	Q0:	0
372	33	Q6:	1	258
373	30	Q7:	3	212
374	13	Q6:	1
375	33	Q8:	0
376	21	Q8:	2	163
377	40	Q6:	2	76
378	14	Q7:	2	320	155
379	10	Q6:	1	6
380	18	Q8:	1	360	144
381	11	Q7:	2
382	35	Q4:	3	321
383	25	Q6:	2	107
384	12	Q9:	3	94
385	34	Q8:	3
386	17	Q9:	0	214
387	28	Q2:	3
388	12	Q1:	2
389	12	Q8:	0
390	20	Q1:	0
391	34	Q9:	3
392	8	Q4:	2	270
393	32	Q4:	1
394	10	Q4:	3	182	301
395	31	Q6:	2	199	147
396	32	Q2:	2	124
397	28	Q0:	1	226	74	169
398	22	Q1:	3
399	31	Q0:	2
400	36	Q6:	0
401	10	Q3:	0	290
402	27	Q3:	3	213	348
403	11	Q0:	0	310	229
404	23	Q5:	0	378	111	266	329
405	29	Q1:	1	276
406	36	Q1:	1	366
407	25	Q9:	0	363
408	12	Q2:	2
409	22	Q4:	2	132
410	25	Q1:	0	303
411	17	Q3:	3	55
412	40	Q8:	2	263
413	20	Q3:	2
414	21	Q8:	2	327
415	37	Q6:	1
416	13	Q2:	3
417	14	Q8:	1	2
418	14	Q4:	0
419	17	Q3:	2
420	40	Q0:	0	31
421	32	Q4:	3
422	19	Q6:	1
423	17	Q9:	0	9
424	33	Q0:	1
425	39	Q1:	0	195
426	31	Q2:	3
427	31	Q7:	0	399
428	30	Q2:	1	32
429	10	Q0:	2
430	12	Q2:	0
431	22	Q0:	0	198
432	26	Q6:	2	274
433	22	Q8:	0	209	203
434	13	Q3:	1	66
435	11	Q0:	1	193	301
436	22	Q0:	3
437	29	Q5:	2	250
438	16	Q7:	2
439	11	Q5:	3
440	32	Q0:	3
441	40	Q5:	2	406
442	39	Q7:	0
443	28	Q1:	1	196	247
444	23	Q5:	3
445	36	Q9:	0	4
446	32	Q6:	2	136
447	32	Q4:	0	421	35	215
448	38	Q8:	0
449	35	Q8:	3	56	94
450	35	Q0:	3	174	386
451	29	Q4:	0
452	20	Q4:	1	413	291
453	19	Q5:	0	213
454	24	Q7:	1	398
455	13	Q2:	1	353
456	38	Q2:	0	70	53
457	37	Q7:	3
458	19	Q4:	0	200
459	13	Q0:	3	21	177	124	180	426
460	25	Q0:	3
461	24	Q8:	0
462	37	Q6:	3	154
463	15	Q5:	1
464	19	Q2:	2	432	272
465	15	Q6:	0	137
466	10	Q2:	2
467	29	Q6:	3	221	431	464
468	33	Q7:	0	272
469	22	Q5:	1	289	91
470	28	Q9:	3
471	14	Q3:	3	407
472	23	Q6:	1	206	463	11
473	10	Q6:	2	404	162
474	40	Q8:	0	234	467
475	37	Q3:	2
476	26	Q7:	1	321
477	26	Q5:	1
478	27	Q3:	0
479	23	Q5:	3
480	20	Q8:	1
481	40	Q2:	1	108
482	33	Q9:	1
483	22	Q6:	3
484	20	Q4:	3	184
485	10	Q5:	1	377
486	26	Q0:	1	289
487	14	Q5:	3	67
488	24	Q0:	2	228
489	10	Q4:	3	258
490	25	Q6:	2
491	32	Q4:	1
492	26	Q0:	0
493	30	Q3:	0	173
494	25	Q2:	2	291	317	346
495	32	Q2:	2	123	179
496	14	Q7:	0	215
497	19	Q7:	3	488	173	72
498	31	Q7:	0	194	392
499	31	Q1:	1	388
500	31	Q1:	0	23
501	21	Q6:	0	15
502	10	Q4:	2	242	462
503	31	Q8:	1	133
504	30	Q3:	1	248
505	26	Q6:	2
506	16	Q8:	3	57	224	419
507	29	Q1:	0	424
508	9	Q4:	3	445	337
509	24	Q7:	0	84	435	383
510	25	Q5:	0	504
511	32	Q0:	1	454
512	29	Q5:	2	91
513	10	Q1:	0	403	141
514	23	Q4:	0
515	39	Q3:	1	332	163
516	19	Q1:	3	379	256
517	13	Q6:	3
518	22	Q0:	3
519	29	Q6:	2
520	30	Q3:	3
521	36	Q0:	0
522	20	Q9:	0
523	15	Q7:	3	508
524	40	Q7:	2
525	27	Q3:	0	352
526	25	Q1:	1	168
527	26	Q6:	1	254
528	24	Q8:	1
529	18	Q5:	3	202
530	22	Q2:	0
531	20	Q7:	0	204
532	30	Q9:	0	327
533	38	Q0:	0
534	14	Q0:	0
535	33	Q4:	1	514	6
536	15	Q2:	2
537	18	Q6:	2	39
538	17	Q9:	3	416
539	17	Q6:	2	366	239
540	27	Q7:	3	493	446
541	34	Q5:	1	144	369	146
542	31	Q4:	0	284
543	11	Q4:	2	182	136
544	26	Q3:	0	190
545	34	Q0:	0	279
546	19	Q5:	2	2	61
547	28	Q9:	0
548	36	Q4:	1	382
549	18	Q8:	1
550	40	Q9:	2	65
551	22	Q3:	1
552	32	Q5:	3
553	19	Q4:	0	493
554	26	Q0:	0	322	383
555	17	Q6:	3	540
556	13	Q6:	1	367	8
557	24	Q5:	3	461
558	10	Q2:	3
559	29	Q4:	3	507
560	33	Q9:	1	509	499
561	19	Q4:	3	176	356
562	24	Q6:	2
563	15	Q7:	0	417	28	295	267	409
564	25	Q9:	2
565	38	Q1:	3	239
566	18	Q7:	0	524	370
567	11	Q7:	3	319
568	16	Q1:	1	19
569	12	Q7:	3
570	38	Q1:	3	40	544	535
571	36	Q5:	0
572	15	Q8:	2
573	33	Q0:	3	174	313	270
574	14	Q1:	0
575	35	Q9:	1	89	451
576	24	Q6:	1
577	36	Q1:	1	224
578	34	Q3:	1
579	25	Q2:	1	161
580	12	Q9:	3
581	19	Q6:	1
582	23	Q0:	3
583	21	Q8:	1	481	311	192	59
584	25	Q1:	1
585	16	Q7:	1	398	20
586	25	Q6:	3	136	278
587	37	Q6:	0	275	545
588	32	Q5:	0	564
589	16	Q8:	0
590	21	Q2:	0
591	29	Q1:	1
592	25	Q2:	2	415	363
593	10	Q5:	1
594	22	Q5:	3	295	522
595	19	Q7:	2	243
596	35	Q4:	3	14
597	31	Q5:	2
598	28	Q9:	1	58	378	160	213
599	25	Q1:	2	204	300
600	17	Q7:	0
601	30	Q9:	3	453	439
602	24	Q6:	3	399	459	356
603	35	Q1:	0	475
604	25	Q8:	0	398
605	16	Q9:	3	580	281
606	16	Q4:	1	295
607	12	Q4:	1	309
608	21	Q1:	3	39	118
609	18	Q8:	2	119	493	297
610	40	Q9:	1	76
611	20	Q1:	2
612	22	Q5:	2	122
613	16	Q4:	1	594	444
614	35	Q4:	0	215	557	329
615	18	Q8:	2	48
616	38	Q0:	2	351
617	9	Q2:	2	590	304
618	11	Q0:	2
619	32	Q5:	1	438	579
620	27	Q9:	1
621	33	Q5:	3	209	156
622	17	Q1:	2
623	36	Q8:	0	483
624	22	Q0:	2	607	222
625	15	Q5:	2	327
626	30	Q7:	3	320	313
627	12	Q8:	3	76
628	36	Q0:	2	384
629	37	Q3:	2
630	9	Q6:	0
631	35	Q2:	3
632	17	Q3:	3	511	135
633	39	Q4:	0	328	410	506
634	20	Q5:	2
635	18	Q7:	2	551
636	33	Q8:	3	86	457	559
637	13	Q8:	3	388	576
638	10	Q4:	3	16
639	20	Q5:	3	371
640	11	Q2:	2	208
641	25	Q2:	1
642	9	Q0:	2
643	29	Q8:	2	26
644	11	Q3:	2	193
645	16	Q5:	1
646	24	Q8:	2	548	413
647	26	Q9:	2	20	92	136
648	38	Q0:	1	454	95	473
649	28	Q9:	3	42
650	11	Q9:	3
651	35	Q4:	1	443	311
652	25	Q0:	1
653	34	Q9:	0	242
654	33	Q9:	0
655	9	Q7:	2	151
656	36	Q0:	0
657	28	Q9:	0	80	145	526
658	17	Q3:	0	368
659	33	Q9:	2	288
660	18	Q2:	1	635
661	36	Q3:	1
662	34	Q9:	1	30
663	38	Q7:	1	354
664	17	Q9:	0	46	531
665	34	Q8:	1
666	11	Q6:	0	109
667	11	Q2:	3	231
668	30	Q4:	2
669	22	Q9:	0	408	88
670	29	Q2:	1	87
671	40	Q2:	2	523
672	34	Q9:	3	469	415
673	21	Q2:	0	343	569	162
674	21	Q9:	1
675	13	Q8:	3	527
676	25	Q5:	1	209	511
677	15	Q4:	1	413	298	65
678	22	Q2:	1	439
679	25	Q7:	1
680	24	Q2:	3
681	34	Q5:	1	141	640
682	20	Q3:	3	629	547
683	33	Q9:	0
684	24	Q3:	3	603	323	80	158	495
685	35	Q0:	2	428	549
686	19	Q4:	1
687	36	Q4:	3	686
688	22	Q3:	0	418	70
689	29	Q8:	3	566	37
690	9	Q3:	1	520
691	32	Q7:	2
692	26	Q1:	0	372	142
693	19	Q9:	2	509
694	33	Q8:	0	585	294	428
695	40	Q6:	0	361
696	10	Q9:	2	268	443	553	312
697	34	Q4:	3	488	504	544
698	17	Q8:	1	511	505	56	256
699	29	Q8:	1
700	32	Q8:	1
701	15	Q7:	1	344	153
702	40	Q0:	1	662	90	41
703	10	Q9:	0	206
704	10	Q5:	0	104
705	34	Q2:	2	360	242	373	4
706	34	Q4:	1	309	670
707	21	Q9:	0
708	24	Q5:	3	429	61	496
709	25	Q7:	0	52
710	13	Q5:	1	684
711	38	Q2:	1	468
712	16	Q6:	0
713	21	Q8:	3
714	15	Q5:	3	665	74
715	30	Q8:	0	155	535
716	40	Q4:	3	567
717	21	Q0:	0	707	187
718	12	Q8:	1	474
719	14	Q4:	0
720	38	Q0:	1
721	23	Q5:	2	202
722	32	Q5:	0	706
723	24	Q6:	1	161	419	501	692
724	16	Q2:	1
725	39	Q0:	0	264
726	30	Q3:	2
727	13	Q9:	1	483
728	11	Q9:	2
729	20	Q6:	2	179	451
730	11	Q4:	0	76
731	31	Q2:	0	431	599
732	35	Q8:	2	517	294
733	11	Q6:	0	213
734	22	Q0:	2	85	113
735	31	Q9:	3	509	224	468
736	26	Q5:	2	9	140	197
737	9	Q9:	1	20
738	35	Q6:	3
739	34	Q6:	3	387	721
740	34	Q0:	0	412	141	622
741	35	Q2:	1
742	22	Q0:	1
743	26	Q1:	0	619	725	163	107
744	26	Q4:	1	373
745	24	Q2:	2	528
746	28	Q8:	3
747	33	Q7:	2	746	159	4
748	29	Q3:	1	367
749	26	Q0:	0	275
750	18	Q7:	0	484	434	13	632
751	14	Q6:	1	241
752	29	Q5:	1	59	490
753	10	Q0:	0	624
754	37	Q8:	1	749
755	27	Q1:	3	309	728
756	32	Q1:	0	216	112
757	29	Q5:	3	626	663
758	29	Q7:	2	120
759	19	Q8:	2	2
760	37	Q8:	1
761	39	Q6:	1
762	35	Q5:	1	223
763	26	Q2:	2	341	197
764	37	Q6:	3	70	675
765	34	Q5:	0	651
766	19	Q6:	0	269
767	19	Q9:	0	197	674	667
768	28	Q5:	3	742	321	518
769	37	Q1:	2	597
770	25	Q5:	0	108
771	31	Q0:	3	390	523	490	368	725
772	10	Q9:	3	202
773	16	Q2:	0	586	23	190
774	35	Q1:	3
775	14	Q1:	0	477
776	13	Q0:	0	9	68	499	126
777	30	Q9:	0
778	15	Q3:	0	401
779	17	Q5:	0	381
780	14	Q0:	1	361	220	367
781	29	Q8:	3
782	15	Q4:	2	411	147
783	36	Q3:	3	426
784	27	Q1:	1	216
785	12	Q2:	3
786	18	Q7:	0
787	10	Q1:	2
788	21	Q0:	3
789	30	Q2:	0	363	410
790	15	Q6:	3	278	111
791	18	Q0:	2	180	263	770	270
792	20	Q4:	0	542	2	368	179	699
793	37	Q9:	3	700	103	381	698
794	39	Q6:	2	31	253	777	129	377
795	12	Q7:	2	680	763	88	489
796	38	Q7:	0	536	41	426
797	11	Q6:	1	227	337	318
798	11	Q3:	1	197
799	17	Q3:	2	571	693	681
800	31	Q1:	3	668	625	7
801	37	Q6:	2	211
802	17	Q0:	1	145	476	320
803	37	Q7:	1	27
804	33	Q0:	1	623	262	167
805	37	Q2:	0	216
806	35	Q1:	1	424	664
807	35	Q0:	0
808	22	Q2:	0
809	11	Q4:	0	440	347	619
810	14	Q8:	1	23	548
811	11	Q4:	1	417	495	310	126	179	87	804
812	25	Q6:	2	110
813	19	Q6:	1	370	377
814	10	Q9:	2	426
815	38	Q8:	0	644	524
816	18	Q5:	1	443	789
817	21	Q4:	2	441	117
818	20	Q2:	0	816	780	534
819	32	Q3:	1	418
820	23	Q3:	1	307	339	277	167
821	20	Q1:	1
822	18	Q0:	3
823	38	Q5:	0	73	12
824	30	Q7:	0	39	142
825	40	Q7:	0	291	266	115
826	39	Q9:	2
827	39	Q4:	2	697	158
828	20	Q2:	1	24	98
829	32	Q9:	2	247	263
830	12	Q3:	0	123	185	809
831	30	Q4:	0
832	15	Q3:	0	664
833	20	Q2:	3	598	708
834	16	Q0:	0	503	160
835	10	Q7:	1	431
836	28	Q9:	0	619
837	23	Q5:	2	253	290	247
838	38	Q4:	3	571	308	599
839	14	Q1:	2	802	263	822
840	23	Q3:	1	72	32
841	9	Q3:	3
842	24	Q4:	3
843	16	Q2:	0	487	662
844	15	Q9:	1	78
845	33	Q4:	1	752	598
846	20	Q1:	0	208	385	173	837	564
847	26	Q4:	1
848	34	Q6:	3	699	666	434
849	14	Q6:	2	7
850	15	Q5:	3	167	567	766
851	18	Q2:	2	48	661	840
852	33	Q1:	2	718
853	34	Q8:	2
854	28	Q5:	0	810	557	181	656	833
855	34	Q4:	3
856	13	Q4:	3	543	490
857	30	Q0:	2	762	312
858	38	Q5:	1	386	615	32
859	31	Q8:	2	194	459
860	24	Q7:	0	66	158	41
861	13	Q5:	1	116	771	860	644
862	21	Q2:	1
863	33	Q2:	3	697
864	23	Q5:	0	332
865	22	Q7:	1	640
866	24	Q0:	1	194
867	39	Q5:	2	469
868	14	Q8:	0	628	229
869	17	Q2:	0	651	132
870	13	Q6:	3
871	16	Q0:	1	673	348	782
872	13	Q2:	0
873	22	Q0:	3	745	183
874	24	Q8:	2	431	808	508	598	471
875	18	Q9:	2	83	645
876	39	Q3:	0	644	724	315
877	11	Q3:	1
878	22	Q4:	0	65
879	39	Q8:	0	571	835
880	27	Q8:	1	470
881	10	Q0:	2	28	500	642
882	20	Q0:	1	736	811	704
883	11	Q3:	1	156	705	105
884	18	Q5:	1	33	636
885	40	Q3:	3	808	526
886	15	Q6:	0
887	14	Q2:	0	772
888	26	Q0:	3	636	39
889	25	Q1:	0	262	567
890	13	Q6:	0	443
891	26	Q8:	1	198	848	871
892	16	Q1:	3	497	632	555
893	30	Q7:	0	527	885	455
894	12	Q0:	3	300	642
895	9	Q6:	0	96	600	279	743
896	9	Q7:	2	599
897	31	Q0:	0	643	846
898	38	Q2:	0	619	683	481
899	24	Q0:	3
900	29	Q1:	3	572	347	540
901	16	Q7:	3	365	820
902	34	Q5:	3	144
903	20	Q1:	1	481	881
904	25	Q5:	1	857
905	17	Q3:	0	31
906	28	Q1:	2	325
907	12	Q0:	1	458	201	50
908	31	Q8:	0	829
909	15	Q0:	2	572	802	504
910	16	Q5:	0	534	125	611
911	30	Q6:	3
912	15	Q0:	0	519
913	40	Q8:	0
914	27	Q0:	3	884	203	518
915	26	Q9:	3	801
916	14	Q1:	3	200	904	742
917	10	Q1:	1	912
918	20	Q1:	1	296	331
919	33	Q8:	0	264	842
920	26	Q0:	1	668	706
921	25	Q9:	1	840	262
922	39	Q1:	0	678
923	15	Q0:	3	891	568
924	18	Q1:	1	457	140
925	33	Q5:	0	692
926	23	Q9:	1	598	476
927	39	Q9:	3	472	405
928	22	Q7:	1	698	404
929	27	Q4:	3	375	437
930	12	Q4:	3	897
931	8	Q6:	0	72
932	37	Q6:	0	592
933	28	Q5:	2	920	921
934	21	Q4:	1	341	403
935	21	Q3:	1	145
936	19	Q7:	1	231	929	730
937	14	Q2:	3	766	154
938	20	Q5:	1	24
939	34	Q7:	1	322	410	663	770
940	30	Q5:	0
941	35	Q6:	3
942	20	Q5:	3	571	437	657
943	21	Q0:	1	518
944	40	Q7:	1	694	918	654	538
945	27	Q4:	0
946	33	Q3:	3	334
947	33	Q7:	2	812	733	122	431	209	499
948	37	Q1:	1	810	134	399	203
949	36	Q0:	2	50	112
950	29	Q9:	2	335	14	849	293
951	21	Q3:	0	176	790
952	23	Q2:	2	557	79	356	536
953	15	Q8:	3
954	34	Q5:	1	837	351
955	39	Q3:	2	623	579
956	16	Q1:	3
957	38	Q0:	1	769	887	291
958	37	Q0:	3	636	238
959	39	Q1:	2	116
960	30	Q8:	1	339	154
961	25	Q5:	2	514	222	445	36	945
962	24	Q7:	3	669	892
963	13	Q0:	3
964	36	Q7:	3	276
965	22	Q0:	3	548
966	37	Q5:	2	145	730
967	12	Q2:	0	736
968	39	Q8:	3	924
969	26	Q2:	2	155	684
970	27	Q2:	3	694	737
971	36	Q8:	3	583	515	105
972	30	Q7:	3	794	137	77
973	27	Q7:	0	116	865
974	17	Q6:	2	870	879	397
975	39	Q9:	2	817	246
976	34	Q2:	2	854	550	64	529	180
977	28	Q2:	1	387
978	23	Q4:	0	648	410
979	12	Q5:	1	475	732	658
980	33	Q5:	1	391	430	889	493
981	35	Q8:	3	847
982	17	Q8:	0	543	961
983	18	Q3:	3	974	173	881	93
984	17	Q3:	2	30
985	27	Q6:	0
986	34	Q5:	0	893	41	157
987	9	Q5:	3	368	776
988	12	Q5:	3	708
989	11	Q6:	3	410
990	29	Q2:	0	944
991	23	Q0:	0	955
992	26	Q2:	2	80	771	518
993	33	Q8:	3	118	812	53
994	34	Q3:	1
995	30	Q9:	0	147	525
996	15	Q3:	2	194	687	39
997	22	Q3:	2	204
998	15	Q7:	2	981	195	81	593
999	40	Q9:	3	671	545
1000	23	Q0:	0	646	630
========================================================== 